min: c;

c = 4.68452438369245 * u3_t10_h0 + 4.12395177418242 * u3_t10_h1 + 3.66719671198087 * u3_t4_h2 + 3.66719671198087 * u3_t10_h2 + 2.96191262494855 * u3_t4_h3 + 2.96191262494855 * u3_t10_h3 + 3.6396192661511 * u3_t4_h4 + 3.6396192661511 * u3_t10_h4 + 3.80177498176828 * u3_t4_h5 + 3.80177498176828 * u3_t10_h5 + 4.13340023043245 * u3_t4_h6 + 4.13340023043245 * u3_t10_h6 + 3.97670870816345 * u3_t4_h7 + 3.97670870816345 * u3_t9_h7 + 3.97670870816345 * u3_t10_h7 + 5.12629299347359 * u3_t4_h8 + 5.12629299347359 * u3_t9_h8 + 4.92563739912571 * u3_t4_h9 + 4.92563739912571 * u3_t9_h9 + 5.11246397153876 * u3_t4_h10 + 5.11246397153876 * u3_t6_h10 + 5.11246397153876 * u3_t9_h10 + 3.66291035820634 * u3_t3_h11 + 3.66291035820634 * u3_t4_h11 + 3.66291035820634 * u3_t6_h11 + 3.66291035820634 * u3_t9_h11 + 5.88302669084894 * u3_t3_h12 + 5.88302669084894 * u3_t4_h12 + 5.88302669084894 * u3_t6_h12 + 5.88302669084894 * u3_t9_h12 + 4.26147481273498 * u3_t3_h13 + 4.26147481273498 * u3_t4_h13 + 4.26147481273498 * u3_t5_h13 + 4.26147481273498 * u3_t6_h13 + 4.26147481273498 * u3_t9_h13 + 5.62176809051602 * u3_t3_h14 + 5.62176809051602 * u3_t4_h14 + 5.62176809051602 * u3_t5_h14 + 5.62176809051602 * u3_t6_h14 + 5.62176809051602 * u3_t9_h14 + 6.56028023699798 * u3_t2_h15 + 6.56028023699798 * u3_t3_h15 + 6.56028023699798 * u3_t4_h15 + 6.56028023699798 * u3_t5_h15 + 6.56028023699798 * u3_t6_h15 + 6.56028023699798 * u3_t9_h15 + 5.38933177245032 * u3_t2_h16 + 5.38933177245032 * u3_t4_h16 + 5.38933177245032 * u3_t5_h16 + 5.38933177245032 * u3_t6_h16 + 5.38933177245032 * u3_t9_h16 + 6.66371931868126 * u3_t2_h17 + 6.66371931868126 * u3_t4_h17 + 6.66371931868126 * u3_t6_h17 + 6.66371931868126 * u3_t9_h17 + 6.63763275771512 * u3_t2_h18 + 6.63763275771512 * u3_t6_h18 + 6.63763275771512 * u3_t9_h18 + 6.04250545630417 * u3_t2_h19 + 6.04250545630417 * u3_t9_h19 + 5.8553027673655 * u3_t1_h20 + 5.8553027673655 * u3_t2_h20 + 5.8553027673655 * u3_t8_h20 + 5.8553027673655 * u3_t9_h20 + 4.88448131645274 * u3_t1_h21 + 4.88448131645274 * u3_t2_h21 + 4.88448131645274 * u3_t7_h21 + 4.88448131645274 * u3_t8_h21 + 4.88448131645274 * u3_t9_h21 + 5.68982900029671 * u3_t1_h22 + 5.68982900029671 * u3_t7_h22 + 5.68982900029671 * u3_t8_h22 + 5.91935983429892 * u3_t1_h23 + 5.91935983429892 * u3_t7_h23 + 5.91935983429892 * u3_t8_h23;
0 <= u3_t1_h20 <= 1;
0 <= u3_t1_h21 <= 1;
0 <= u3_t1_h22 <= 1;
0 <= u3_t1_h23 <= 1;
u3_t1_h20 + u3_t1_h21 + u3_t1_h22 + u3_t1_h23 = 2;
0 <= u3_t2_h15 <= 1;
0 <= u3_t2_h16 <= 1;
0 <= u3_t2_h17 <= 1;
0 <= u3_t2_h18 <= 1;
0 <= u3_t2_h19 <= 1;
0 <= u3_t2_h20 <= 1;
0 <= u3_t2_h21 <= 1;
u3_t2_h15 + u3_t2_h16 + u3_t2_h17 + u3_t2_h18 + u3_t2_h19 + u3_t2_h20 + u3_t2_h21 = 3;
0 <= u3_t3_h11 <= 1;
0 <= u3_t3_h12 <= 1;
0 <= u3_t3_h13 <= 1;
0 <= u3_t3_h14 <= 1;
0 <= u3_t3_h15 <= 1;
u3_t3_h11 + u3_t3_h12 + u3_t3_h13 + u3_t3_h14 + u3_t3_h15 = 2;
0 <= u3_t4_h2 <= 1;
0 <= u3_t4_h3 <= 1;
0 <= u3_t4_h4 <= 1;
0 <= u3_t4_h5 <= 1;
0 <= u3_t4_h6 <= 1;
0 <= u3_t4_h7 <= 1;
0 <= u3_t4_h8 <= 1;
0 <= u3_t4_h9 <= 1;
0 <= u3_t4_h10 <= 1;
0 <= u3_t4_h11 <= 1;
0 <= u3_t4_h12 <= 1;
0 <= u3_t4_h13 <= 1;
0 <= u3_t4_h14 <= 1;
0 <= u3_t4_h15 <= 1;
0 <= u3_t4_h16 <= 1;
0 <= u3_t4_h17 <= 1;
u3_t4_h2 + u3_t4_h3 + u3_t4_h4 + u3_t4_h5 + u3_t4_h6 + u3_t4_h7 + u3_t4_h8 + u3_t4_h9 + u3_t4_h10 + u3_t4_h11 + u3_t4_h12 + u3_t4_h13 + u3_t4_h14 + u3_t4_h15 + u3_t4_h16 + u3_t4_h17 = 3;
0 <= u3_t5_h13 <= 1;
0 <= u3_t5_h14 <= 1;
0 <= u3_t5_h15 <= 1;
0 <= u3_t5_h16 <= 1;
u3_t5_h13 + u3_t5_h14 + u3_t5_h15 + u3_t5_h16 = 2;
0 <= u3_t6_h10 <= 1;
0 <= u3_t6_h11 <= 1;
0 <= u3_t6_h12 <= 1;
0 <= u3_t6_h13 <= 1;
0 <= u3_t6_h14 <= 1;
0 <= u3_t6_h15 <= 1;
0 <= u3_t6_h16 <= 1;
0 <= u3_t6_h17 <= 1;
0 <= u3_t6_h18 <= 1;
u3_t6_h10 + u3_t6_h11 + u3_t6_h12 + u3_t6_h13 + u3_t6_h14 + u3_t6_h15 + u3_t6_h16 + u3_t6_h17 + u3_t6_h18 = 2;
0 <= u3_t7_h21 <= 1;
0 <= u3_t7_h22 <= 1;
0 <= u3_t7_h23 <= 1;
u3_t7_h21 + u3_t7_h22 + u3_t7_h23 = 2;
0 <= u3_t8_h20 <= 1;
0 <= u3_t8_h21 <= 1;
0 <= u3_t8_h22 <= 1;
0 <= u3_t8_h23 <= 1;
u3_t8_h20 + u3_t8_h21 + u3_t8_h22 + u3_t8_h23 = 1;
0 <= u3_t9_h7 <= 1;
0 <= u3_t9_h8 <= 1;
0 <= u3_t9_h9 <= 1;
0 <= u3_t9_h10 <= 1;
0 <= u3_t9_h11 <= 1;
0 <= u3_t9_h12 <= 1;
0 <= u3_t9_h13 <= 1;
0 <= u3_t9_h14 <= 1;
0 <= u3_t9_h15 <= 1;
0 <= u3_t9_h16 <= 1;
0 <= u3_t9_h17 <= 1;
0 <= u3_t9_h18 <= 1;
0 <= u3_t9_h19 <= 1;
0 <= u3_t9_h20 <= 1;
0 <= u3_t9_h21 <= 1;
u3_t9_h7 + u3_t9_h8 + u3_t9_h9 + u3_t9_h10 + u3_t9_h11 + u3_t9_h12 + u3_t9_h13 + u3_t9_h14 + u3_t9_h15 + u3_t9_h16 + u3_t9_h17 + u3_t9_h18 + u3_t9_h19 + u3_t9_h20 + u3_t9_h21 = 2;
0 <= u3_t10_h0 <= 1;
0 <= u3_t10_h1 <= 1;
0 <= u3_t10_h2 <= 1;
0 <= u3_t10_h3 <= 1;
0 <= u3_t10_h4 <= 1;
0 <= u3_t10_h5 <= 1;
0 <= u3_t10_h6 <= 1;
0 <= u3_t10_h7 <= 1;
u3_t10_h0 + u3_t10_h1 + u3_t10_h2 + u3_t10_h3 + u3_t10_h4 + u3_t10_h5 + u3_t10_h6 + u3_t10_h7 = 3;
